n = 70;
m = 3;
capacities = [183, 183, 183];
profits = [100, 67, 71, 32, 23, 81, 43, 24, 43, 29, 99, 29, 21, 19, 14, 68, 68, 12, 19, 45, 99, 32, 26, 11, 94, 64, 28, 53, 83, 51, 94, 71, 62, 36, 60, 83, 75, 13, 33, 30, 89, 15, 79, 38, 50, 25, 64, 47, 17, 38, 55, 77, 14, 90, 88, 31, 10, 46, 88, 52, 86, 65, 38, 44, 97, 14, 85, 85, 24, 38];
weights = [8, 17, 5, 17, 8, 15, 19, 10, 10, 13, 5, 19, 14, 14, 13, 9, 16, 14, 19, 14, 18, 14, 18, 9, 10, 15, 5, 14, 17, 7, 10, 15, 20, 5, 17, 8, 16, 14, 11, 10, 17, 15, 7, 7, 18, 9, 13, 14, 14, 10, 6, 6, 16, 19, 15, 18, 19, 18, 19, 6, 17, 14, 11, 14, 17, 18, 17, 16, 8, 7];
